
--- Job RookTour.gms Start 09/28/21 22:36:40 36.1.0 r2c0a44a WEX-WEI x86 64bit/MS Windows
--- Applying:
    C:\GAMS\36\gmsprmNT.txt
    C:\Users\Erwin\Documents\GAMS\gamsconfig.yaml
--- GAMS Parameters defined
    Input D:\projects\OptimizationModels\RookTour\RookTour.gms
    PageWidth 120
    PageSize 0
    PageContr 3
    Action CE
    ScrDir D:\projects\OptimizationModels\RookTour\225a\
    SysDir C:\GAMS\36\
    WorkDir D:\projects\OptimizationModels\RookTour\
    LogOption 3
    DFormat 0
    TFormat 0
    ErrorLog 99
    IDE 1
Licensee: Eval License                                   S201210/0001CO-GEN
          Amsterdam Optimization Modeling Group,                     DCE378
          C:\Users\Erwin\Documents\GAMS\gamslice.txt
          Evaluation license: Not for commercial or production use
Processor information: 1 socket(s), 4 core(s), and 8 thread(s) available
GAMS 36.1.0   Copyright (C) 1987-2021 GAMS Development. All rights reserved
--- Starting compilation
--- RookTour.gms(103) 3 Mb
--- Starting execution: elapsed 0:00:00.141
--- RookTour.gms(86) 4 Mb
--- Generating MIP model m
--- RookTour.gms(87) 7 Mb
--- LOOPS sol = solution1
---   4,179 rows  4,097 columns  26,661 non-zeroes
---   4,096 discrete-columns
--- Executing CPLEX (Solvelink=2): elapsed 0:00:00.273

IBM ILOG CPLEX   36.1.0 r2c0a44a Released Aug 02, 2021 WEI x86 64bit/MS Window

--- GAMS/Cplex Link licensed for continuous and discrete problems.
--- GMO setup time: 0.00s
--- Space for names approximately 0.17 Mb
--- Use option 'names no' to turn use of names off
--- GMO memory 2.45 Mb (peak 2.48 Mb)
--- Dictionary memory 0.00 Mb
--- Cplex 20.1.0.1 link memory 0.13 Mb (peak 0.69 Mb)
--- Starting Cplex

Version identifier: 20.1.0.1 | 2021-04-07 | 3a818710c
CPXPARAM_Advance                                 0
CPXPARAM_Threads                                 8
CPXPARAM_Parallel                                1
CPXPARAM_MIP_Display                             4
CPXPARAM_MIP_Tolerances_AbsMIPGap                0
Generic callback                                 0x50
Tried aggregator 1 time.
MIP Presolve eliminated 1070 rows and 1009 columns.
MIP Presolve modified 386 coefficients.
Reduced MIP has 3108 rows, 3088 columns, and 17713 nonzeros.
Reduced MIP has 3088 binaries, 0 generals, 0 SOSs, and 0 indicators.
Presolve time = 0.09 sec. (19.20 ticks)
Probing fixed 1618 vars, tightened 0 bounds.
Probing changed sense of 65 constraints.
Probing time = 1.02 sec. (97.09 ticks)
Cover probing fixed 16 vars, tightened 0 bounds.
Tried aggregator 1 time.
MIP Presolve eliminated 1566 rows and 1634 columns.
Reduced MIP has 1542 rows, 1454 columns, and 8527 nonzeros.
Reduced MIP has 1454 binaries, 0 generals, 0 SOSs, and 0 indicators.
Presolve time = 0.06 sec. (8.55 ticks)
Probing fixed 37 vars, tightened 0 bounds.
Probing changed sense of 4 constraints.
Probing time = 0.30 sec. (32.65 ticks)
Tried aggregator 1 time.
Detecting symmetries...
MIP Presolve eliminated 41 rows and 41 columns.
MIP Presolve modified 2 coefficients.
Reduced MIP has 1501 rows, 1413 columns, and 8314 nonzeros.
Reduced MIP has 1413 binaries, 0 generals, 0 SOSs, and 0 indicators.
Presolve time = 0.05 sec. (8.40 ticks)
Probing time = 0.02 sec. (3.41 ticks)
Clique table members: 8268.
MIP emphasis: balance optimality and feasibility.
MIP search method: dynamic search.
Parallel mode: deterministic, using up to 8 threads.
Parallel mode: deterministic, using up to 2 threads for parallel tasks at root LP.
Parallel mode: deterministic, using up to 6 threads for concurrent optimization:
 * Starting dual Simplex on 1 thread...
 * Starting Barrier on 4 threads...
 * Starting primal Simplex on 1 thread...
Tried aggregator 1 time.
No LP presolve or aggregator reductions.
Presolve time = 0.00 sec. (0.80 ticks)

Iteration log . . .
Iteration:     1   Dual objective     =             0.000000
Perturbation started.
Iteration:   101   Dual objective     =             0.000000
Iteration:   212   Dual objective     =             0.000005
Iteration:   299   Dual objective     =             0.000007
Iteration:   364   Dual objective     =             0.000009
Iteration:   426   Dual objective     =             0.000010
Iteration:   488   Dual objective     =             0.000011
Iteration:   550   Dual objective     =             0.000012
Iteration:   612   Dual objective     =             0.000012
Iteration:   674   Dual objective     =             0.000013
Iteration:   736   Dual objective     =             0.000014
Iteration:   798   Dual objective     =             0.000015
Iteration:   860   Dual objective     =             0.000016
Iteration:   922   Dual objective     =             0.000016
Iteration:   984   Dual objective     =             0.000017
Iteration:  1046   Dual objective     =             0.000017
Iteration:  1108   Dual objective     =             0.000018
Iteration:  1170   Dual objective     =             0.000019
Iteration:  1232   Dual objective     =             0.000019
Iteration:  1294   Dual objective     =             0.000020
Iteration:  1356   Dual objective     =             0.000020
Iteration:  1418   Dual objective     =             0.000021
Iteration:  1480   Dual objective     =             0.000021
Iteration:  1542   Dual objective     =             0.000021
Iteration:  1604   Dual objective     =             0.000021
Iteration:  1666   Dual objective     =             0.000021
Removing perturbation.

Barrier solved model.

Root relaxation solution time = 0.91 sec. (164.97 ticks)

        Nodes                                         Cuts/
   Node  Left     Objective  IInf  Best Integer    Best Bound    ItCnt     Gap

      0     0        0.0000   559                      0.0000        9         
      0     0        0.0000   424                    Cuts: 12      409         
      0     0        0.0000   451                    Cuts: 64     1071         
      0     0        0.0000   334                     Cuts: 6     1245         
      0     0        0.0000   422                    Cuts: 41     2618         
Detecting symmetries...
      0     2        0.0000   342                      0.0000     2618         
Elapsed time = 10.28 sec. (4017.40 ticks, tree = 0.02 MB, solutions = 0)
      1     3        0.0000   344                      0.0000     6587         
      3     5        0.0000   322                      0.0000     9140         
     11     8    infeasible                            0.0000    15044         
                                                 Impl Bds: 35                  
     32    15        0.0000   427                      0.0000    31576         
                                                 Impl Bds: 40                  
     57    12    infeasible                            0.0000    38812         
                                                 Impl Bds: 10                  
     68    15        0.0000   369                      0.0000    44402         
                                                  Impl Bds: 7                  
     86     7    infeasible                            0.0000    69381         
                                                 Impl Bds: 17                  
*    96     9      integral     0        0.0000        0.0000    73263    0.00%
Found incumbent of value 0.000000 after 13.50 sec. (6078.16 ticks)
     99     7    infeasible              0.0000        0.0000    69192    0.00%
                                                  Impl Bds: 1                  
    102    12        0.0000   351        0.0000        0.0000    74387    0.00%
                                                  Impl Bds: 2                  

Clique cuts applied:  2
Implied bound cuts applied:  132
Zero-half cuts applied:  3

Root node processing (before b&c):
  Real time             =   10.23 sec. (3993.40 ticks)
Parallel b&c, 8 threads:
  Real time             =    3.78 sec. (2494.60 ticks)
  Sync time (average)   =    1.19 sec.
  Wait time (average)   =    0.00 sec.
                          ------------
Total (root+branch&cut) =   14.02 sec. (6488.01 ticks)

--- MIP status (101): integer optimal solution.
--- Cplex Time: 14.03sec (det. 6488.02 ticks)

--- Fixing integer variables and solving final LP...

Version identifier: 20.1.0.1 | 2021-04-07 | 3a818710c
CPXPARAM_Advance                                 2
CPXPARAM_Threads                                 8
CPXPARAM_Parallel                                1
CPXPARAM_MIP_Display                             4
CPXPARAM_MIP_Tolerances_AbsMIPGap                0
Parallel mode: deterministic, using up to 8 threads for concurrent optimization:
 * Starting dual Simplex on 1 thread...
 * Starting Barrier on 6 threads...
 * Starting primal Simplex on 1 thread...
Tried aggregator 1 time.
LP Presolve eliminated 4178 rows and 4097 columns.
All rows and columns eliminated.
Presolve time = 0.00 sec. (2.46 ticks)

Dual simplex solved model.


--- Fixed MIP status (1): optimal.
--- Cplex Time: 0.03sec (det. 4.17 ticks)


Proven optimal solution
MIP Solution:            0.000000    (90352 iterations, 103 nodes)
Final Solve:             0.000000    (0 iterations)

Best possible:           0.000000
Absolute gap:            0.000000
Relative gap:            0.000000

--- Reading solution for model m
--- Executing after solve: elapsed 0:00:14.740
--- RookTour.gms(86) 7 Mb
--- Generating MIP model m
--- RookTour.gms(87) 7 Mb
--- LOOPS sol = solution2
---   4,180 rows  4,097 columns  26,725 non-zeroes
---   4,096 discrete-columns
--- Executing CPLEX (Solvelink=2): elapsed 0:00:14.787

IBM ILOG CPLEX   36.1.0 r2c0a44a Released Aug 02, 2021 WEI x86 64bit/MS Window

--- GAMS/Cplex Link licensed for continuous and discrete problems.
--- GMO setup time: 0.00s
--- Space for names approximately 0.17 Mb
--- Use option 'names no' to turn use of names off
--- GMO memory 2.45 Mb (peak 2.48 Mb)
--- Dictionary memory 0.00 Mb
--- Cplex 20.1.0.1 link memory 0.13 Mb (peak 0.69 Mb)
--- Starting Cplex

Version identifier: 20.1.0.1 | 2021-04-07 | 3a818710c
CPXPARAM_Advance                                 0
CPXPARAM_Threads                                 8
CPXPARAM_Parallel                                1
CPXPARAM_MIP_Display                             4
CPXPARAM_MIP_Tolerances_AbsMIPGap                0
Generic callback                                 0x50
Tried aggregator 1 time.
MIP Presolve eliminated 1070 rows and 1009 columns.
MIP Presolve modified 386 coefficients.
Reduced MIP has 3109 rows, 3088 columns, and 17777 nonzeros.
Reduced MIP has 3088 binaries, 0 generals, 0 SOSs, and 0 indicators.
Presolve time = 0.09 sec. (19.22 ticks)
Probing fixed 1655 vars, tightened 0 bounds.
Probing changed sense of 74 constraints.
Probing time = 1.41 sec. (93.55 ticks)
Cover probing fixed 1 vars, tightened 0 bounds.
Tried aggregator 1 time.
MIP Presolve eliminated 1588 rows and 1656 columns.
MIP Presolve modified 1 coefficients.
Reduced MIP has 1521 rows, 1432 columns, and 8466 nonzeros.
Reduced MIP has 1432 binaries, 0 generals, 0 SOSs, and 0 indicators.
Presolve time = 0.08 sec. (8.49 ticks)
Probing fixed 15 vars, tightened 0 bounds.
Probing changed sense of 4 constraints.
Probing time = 0.25 sec. (32.30 ticks)
Tried aggregator 1 time.
Detecting symmetries...
MIP Presolve eliminated 19 rows and 19 columns.
MIP Presolve modified 2 coefficients.
Reduced MIP has 1502 rows, 1413 columns, and 8375 nonzeros.
Reduced MIP has 1413 binaries, 0 generals, 0 SOSs, and 0 indicators.
Presolve time = 0.03 sec. (8.29 ticks)
Probing time = 0.05 sec. (3.45 ticks)
Clique table members: 8062.
MIP emphasis: balance optimality and feasibility.
MIP search method: dynamic search.
Parallel mode: deterministic, using up to 8 threads.
Parallel mode: deterministic, using up to 2 threads for parallel tasks at root LP.
Parallel mode: deterministic, using up to 6 threads for concurrent optimization:
 * Starting dual Simplex on 1 thread...
 * Starting Barrier on 4 threads...
 * Starting primal Simplex on 1 thread...
Tried aggregator 1 time.
No LP presolve or aggregator reductions.
Presolve time = 0.00 sec. (0.80 ticks)

Iteration log . . .
Iteration:     1   Dual objective     =             0.000000
Iteration:    97   Dual objective     =             0.000000
Perturbation started.
Iteration:   101   Dual objective     =             0.000000
Iteration:   224   Dual objective     =             0.000005
Iteration:   313   Dual objective     =             0.000008
Iteration:   383   Dual objective     =             0.000009
Iteration:   445   Dual objective     =             0.000010
Iteration:   507   Dual objective     =             0.000011
Iteration:   569   Dual objective     =             0.000011
Iteration:   631   Dual objective     =             0.000012
Iteration:   693   Dual objective     =             0.000013
Iteration:   755   Dual objective     =             0.000013
Iteration:   817   Dual objective     =             0.000014
Iteration:   879   Dual objective     =             0.000015
Iteration:   941   Dual objective     =             0.000015
Iteration:  1003   Dual objective     =             0.000016
Iteration:  1065   Dual objective     =             0.000016
Iteration:  1127   Dual objective     =             0.000017
Iteration:  1189   Dual objective     =             0.000017
Iteration:  1251   Dual objective     =             0.000017
Iteration:  1313   Dual objective     =             0.000018
Iteration:  1375   Dual objective     =             0.000018
Iteration:  1437   Dual objective     =             0.000018
Iteration:  1499   Dual objective     =             0.000019
Iteration:  1561   Dual objective     =             0.000019
Iteration:  1623   Dual objective     =             0.000019
Removing perturbation.

Dual simplex solved model.

Root relaxation solution time = 1.16 sec. (160.22 ticks)

        Nodes                                         Cuts/
   Node  Left     Objective  IInf  Best Integer    Best Bound    ItCnt     Gap

      0     0        0.0000   536                      0.0000     1683         
      0     0        0.0000   455                    Cuts: 18     1876         
      0     0        0.0000   451                    Cuts: 54     2550         
      0     0        0.0000   347                 Impl Bds: 2     2765         
      0     0        0.0000   467                    Cuts: 49     3958         
      0     0        0.0000   350                     Cuts: 2     3985         
Detecting symmetries...
      0     0        0.0000   420                    Cuts: 22     4466         
*     0+    0                            0.0000        0.0000             0.00%
Found incumbent of value 0.000000 after 10.66 sec. (2861.10 ticks)
      0     0        cutoff              0.0000        0.0000     4466    0.00%
Elapsed time = 10.97 sec. (2861.17 ticks, tree = 0.01 MB, solutions = 1)

Implied bound cuts applied:  21
Zero-half cuts applied:  5

Root node processing (before b&c):
  Real time             =   10.97 sec. (2861.29 ticks)
Parallel b&c, 8 threads:
  Real time             =    0.00 sec. (0.00 ticks)
  Sync time (average)   =    0.00 sec.
  Wait time (average)   =    0.00 sec.
                          ------------
Total (root+branch&cut) =   10.97 sec. (2861.29 ticks)

--- MIP status (101): integer optimal solution.
--- Cplex Time: 10.98sec (det. 2861.30 ticks)

--- Fixing integer variables and solving final LP...

Version identifier: 20.1.0.1 | 2021-04-07 | 3a818710c
CPXPARAM_Advance                                 2
CPXPARAM_Threads                                 8
CPXPARAM_Parallel                                1
CPXPARAM_MIP_Display                             4
CPXPARAM_MIP_Tolerances_AbsMIPGap                0
Parallel mode: deterministic, using up to 8 threads for concurrent optimization:
 * Starting dual Simplex on 1 thread...
 * Starting Barrier on 6 threads...
 * Starting primal Simplex on 1 thread...
Tried aggregator 1 time.
LP Presolve eliminated 4179 rows and 4097 columns.
All rows and columns eliminated.
Presolve time = 0.00 sec. (2.46 ticks)

Dual simplex solved model.


--- Fixed MIP status (1): optimal.
--- Cplex Time: 0.11sec (det. 4.17 ticks)


Proven optimal solution
MIP Solution:            0.000000    (4466 iterations, 0 nodes)
Final Solve:             0.000000    (0 iterations)

Best possible:           0.000000
Absolute gap:            0.000000
Relative gap:            0.000000

--- Reading solution for model m
--- Executing after solve: elapsed 0:00:26.028
--- RookTour.gms(86) 7 Mb
--- Generating MIP model m
--- RookTour.gms(87) 7 Mb
--- LOOPS sol = solution3
---   4,181 rows  4,097 columns  26,789 non-zeroes
---   4,096 discrete-columns
--- Executing CPLEX (Solvelink=2): elapsed 0:00:26.136

IBM ILOG CPLEX   36.1.0 r2c0a44a Released Aug 02, 2021 WEI x86 64bit/MS Window

--- GAMS/Cplex Link licensed for continuous and discrete problems.
--- GMO setup time: 0.00s
--- Space for names approximately 0.17 Mb
--- Use option 'names no' to turn use of names off
--- GMO memory 2.45 Mb (peak 2.48 Mb)
--- Dictionary memory 0.00 Mb
--- Cplex 20.1.0.1 link memory 0.13 Mb (peak 0.69 Mb)
--- Starting Cplex

Version identifier: 20.1.0.1 | 2021-04-07 | 3a818710c
CPXPARAM_Advance                                 0
CPXPARAM_Threads                                 8
CPXPARAM_Parallel                                1
CPXPARAM_MIP_Display                             4
CPXPARAM_MIP_Tolerances_AbsMIPGap                0
Generic callback                                 0x50
Tried aggregator 1 time.
MIP Presolve eliminated 1070 rows and 1009 columns.
MIP Presolve modified 386 coefficients.
Reduced MIP has 3110 rows, 3088 columns, and 17841 nonzeros.
Reduced MIP has 3088 binaries, 0 generals, 0 SOSs, and 0 indicators.
Presolve time = 0.06 sec. (19.25 ticks)
Probing fixed 1665 vars, tightened 0 bounds.
Probing changed sense of 84 constraints.
Probing time = 0.33 sec. (94.98 ticks)
Tried aggregator 1 time.
MIP Presolve eliminated 1597 rows and 1665 columns.
MIP Presolve modified 2 coefficients.
Reduced MIP has 1513 rows, 1423 columns, and 8480 nonzeros.
Reduced MIP has 1423 binaries, 0 generals, 0 SOSs, and 0 indicators.
Presolve time = 0.02 sec. (8.48 ticks)
Probing fixed 6 vars, tightened 0 bounds.
Probing time = 0.06 sec. (27.39 ticks)
Tried aggregator 1 time.
Detecting symmetries...
MIP Presolve eliminated 10 rows and 10 columns.
MIP Presolve modified 2 coefficients.
Reduced MIP has 1503 rows, 1413 columns, and 8436 nonzeros.
Reduced MIP has 1413 binaries, 0 generals, 0 SOSs, and 0 indicators.
Presolve time = 0.02 sec. (8.29 ticks)
Probing time = 0.02 sec. (3.49 ticks)
Clique table members: 8099.
MIP emphasis: balance optimality and feasibility.
MIP search method: dynamic search.
Parallel mode: deterministic, using up to 8 threads.
Parallel mode: deterministic, using up to 2 threads for parallel tasks at root LP.
Parallel mode: deterministic, using up to 6 threads for concurrent optimization:
 * Starting dual Simplex on 1 thread...
 * Starting Barrier on 4 threads...
 * Starting primal Simplex on 1 thread...
Tried aggregator 1 time.
No LP presolve or aggregator reductions.
Presolve time = 0.00 sec. (0.81 ticks)

Iteration log . . .
Iteration:     1   Dual objective     =             0.000000
Iteration:    98   Dual objective     =             0.000000
Perturbation started.
Iteration:   101   Dual objective     =             0.000000
Iteration:   210   Dual objective     =             0.000004
Iteration:   300   Dual objective     =             0.000007
Iteration:   369   Dual objective     =             0.000009
Iteration:   431   Dual objective     =             0.000010
Iteration:   493   Dual objective     =             0.000011
Iteration:   555   Dual objective     =             0.000012
Iteration:   617   Dual objective     =             0.000012
Iteration:   679   Dual objective     =             0.000013
Iteration:   741   Dual objective     =             0.000013
Iteration:   803   Dual objective     =             0.000014
Iteration:   865   Dual objective     =             0.000014
Iteration:   927   Dual objective     =             0.000015
Iteration:   989   Dual objective     =             0.000016
Iteration:  1051   Dual objective     =             0.000016
Iteration:  1113   Dual objective     =             0.000016
Iteration:  1175   Dual objective     =             0.000017
Iteration:  1237   Dual objective     =             0.000017
Iteration:  1299   Dual objective     =             0.000017
Iteration:  1361   Dual objective     =             0.000018
Iteration:  1423   Dual objective     =             0.000018
Iteration:  1485   Dual objective     =             0.000018
Iteration:  1547   Dual objective     =             0.000018
Iteration:  1609   Dual objective     =             0.000018
Iteration:  1671   Dual objective     =             0.000019
Removing perturbation.

Barrier solved model.

Root relaxation solution time = 0.42 sec. (162.39 ticks)

        Nodes                                         Cuts/
   Node  Left     Objective  IInf  Best Integer    Best Bound    ItCnt     Gap

      0     0        0.0000   530                      0.0000        9         
      0     0        0.0000   385                     Cuts: 3      285         
      0     0        0.0000   451                    Cuts: 60     1279         
      0     0        0.0000   404                     Cuts: 7     1480         
      0     0        0.0000   439                    Cuts: 29     1974         
*     0+    0                            0.0000        0.0000             0.00%
Found incumbent of value 0.000000 after 14.05 sec. (5655.44 ticks)
      0     0        cutoff              0.0000        0.0000     1974    0.00%
Elapsed time = 14.06 sec. (5655.48 ticks, tree = 0.01 MB, solutions = 1)

Implied bound cuts applied:  23
Zero-half cuts applied:  2

Root node processing (before b&c):
  Real time             =   14.06 sec. (5655.60 ticks)
Parallel b&c, 8 threads:
  Real time             =    0.00 sec. (0.00 ticks)
  Sync time (average)   =    0.00 sec.
  Wait time (average)   =    0.00 sec.
                          ------------
Total (root+branch&cut) =   14.06 sec. (5655.60 ticks)

--- MIP status (101): integer optimal solution.
--- Cplex Time: 14.08sec (det. 5655.61 ticks)

--- Fixing integer variables and solving final LP...

Version identifier: 20.1.0.1 | 2021-04-07 | 3a818710c
CPXPARAM_Advance                                 2
CPXPARAM_Threads                                 8
CPXPARAM_Parallel                                1
CPXPARAM_MIP_Display                             4
CPXPARAM_MIP_Tolerances_AbsMIPGap                0
Parallel mode: deterministic, using up to 8 threads for concurrent optimization:
 * Starting dual Simplex on 1 thread...
 * Starting Barrier on 6 threads...
 * Starting primal Simplex on 1 thread...
Tried aggregator 1 time.
LP Presolve eliminated 4180 rows and 4097 columns.
All rows and columns eliminated.
Presolve time = 0.02 sec. (2.47 ticks)

Dual simplex solved model.


--- Fixed MIP status (1): optimal.
--- Cplex Time: 0.12sec (det. 4.18 ticks)


Proven optimal solution
MIP Solution:            0.000000    (1974 iterations, 0 nodes)
Final Solve:             0.000000    (0 iterations)

Best possible:           0.000000
Absolute gap:            0.000000
Relative gap:            0.000000

--- Reading solution for model m
--- Executing after solve: elapsed 0:00:40.579
--- RookTour.gms(86) 7 Mb
--- Generating MIP model m
--- RookTour.gms(87) 7 Mb
--- LOOPS sol = solution4
---   4,182 rows  4,097 columns  26,853 non-zeroes
---   4,096 discrete-columns
--- Executing CPLEX (Solvelink=2): elapsed 0:00:40.662

IBM ILOG CPLEX   36.1.0 r2c0a44a Released Aug 02, 2021 WEI x86 64bit/MS Window

--- GAMS/Cplex Link licensed for continuous and discrete problems.
--- GMO setup time: 0.00s
--- Space for names approximately 0.17 Mb
--- Use option 'names no' to turn use of names off
--- GMO memory 2.45 Mb (peak 2.48 Mb)
--- Dictionary memory 0.00 Mb
--- Cplex 20.1.0.1 link memory 0.13 Mb (peak 0.69 Mb)
--- Starting Cplex

Version identifier: 20.1.0.1 | 2021-04-07 | 3a818710c
CPXPARAM_Advance                                 0
CPXPARAM_Threads                                 8
CPXPARAM_Parallel                                1
CPXPARAM_MIP_Display                             4
CPXPARAM_MIP_Tolerances_AbsMIPGap                0
Generic callback                                 0x50
Tried aggregator 1 time.
MIP Presolve eliminated 1070 rows and 1009 columns.
MIP Presolve modified 386 coefficients.
Reduced MIP has 3111 rows, 3088 columns, and 17905 nonzeros.
Reduced MIP has 3088 binaries, 0 generals, 0 SOSs, and 0 indicators.
Presolve time = 0.06 sec. (19.29 ticks)
Probing fixed 1654 vars, tightened 0 bounds.
Probing changed sense of 78 constraints.
Probing time = 0.53 sec. (94.52 ticks)
Cover probing fixed 3 vars, tightened 0 bounds.
Tried aggregator 1 time.
MIP Presolve eliminated 1589 rows and 1657 columns.
MIP Presolve modified 3 coefficients.
Reduced MIP has 1522 rows, 1431 columns, and 8580 nonzeros.
Reduced MIP has 1431 binaries, 0 generals, 0 SOSs, and 0 indicators.
Presolve time = 0.02 sec. (8.54 ticks)
Probing fixed 14 vars, tightened 0 bounds.
Probing changed sense of 4 constraints.
Probing time = 0.11 sec. (32.95 ticks)
Tried aggregator 1 time.
Detecting symmetries...
MIP Presolve eliminated 18 rows and 18 columns.
MIP Presolve modified 2 coefficients.
Reduced MIP has 1504 rows, 1413 columns, and 8497 nonzeros.
Reduced MIP has 1413 binaries, 0 generals, 0 SOSs, and 0 indicators.
Presolve time = 0.02 sec. (8.31 ticks)
Probing time = 0.03 sec. (3.50 ticks)
Clique table members: 7880.
MIP emphasis: balance optimality and feasibility.
MIP search method: dynamic search.
Parallel mode: deterministic, using up to 8 threads.
Parallel mode: deterministic, using up to 2 threads for parallel tasks at root LP.
Parallel mode: deterministic, using up to 6 threads for concurrent optimization:
 * Starting dual Simplex on 1 thread...
 * Starting Barrier on 4 threads...
 * Starting primal Simplex on 1 thread...
Tried aggregator 1 time.
No LP presolve or aggregator reductions.
Presolve time = 0.02 sec. (0.81 ticks)

Iteration log . . .
Iteration:     1   Dual objective     =             0.000000
Iteration:    98   Dual objective     =             0.000000
Perturbation started.
Iteration:   101   Dual objective     =             0.000000
Iteration:   210   Dual objective     =             0.000004
Iteration:   300   Dual objective     =             0.000007
Iteration:   366   Dual objective     =             0.000009
Iteration:   428   Dual objective     =             0.000009
Iteration:   490   Dual objective     =             0.000010
Iteration:   552   Dual objective     =             0.000011
Iteration:   614   Dual objective     =             0.000012
Iteration:   676   Dual objective     =             0.000012
Iteration:   738   Dual objective     =             0.000013
Iteration:   800   Dual objective     =             0.000013
Iteration:   862   Dual objective     =             0.000014
Iteration:   924   Dual objective     =             0.000015
Iteration:   986   Dual objective     =             0.000015
Iteration:  1048   Dual objective     =             0.000016
Iteration:  1110   Dual objective     =             0.000017
Iteration:  1172   Dual objective     =             0.000017
Iteration:  1234   Dual objective     =             0.000018
Iteration:  1296   Dual objective     =             0.000018
Iteration:  1358   Dual objective     =             0.000018
Iteration:  1420   Dual objective     =             0.000019
Iteration:  1482   Dual objective     =             0.000019
Iteration:  1544   Dual objective     =             0.000019
Iteration:  1606   Dual objective     =             0.000019
Iteration:  1668   Dual objective     =             0.000019
Removing perturbation.

Barrier solved model.

Root relaxation solution time = 0.81 sec. (163.50 ticks)

        Nodes                                         Cuts/
   Node  Left     Objective  IInf  Best Integer    Best Bound    ItCnt     Gap

      0     0        0.0000   552                      0.0000        9         
      0     0        0.0000   340                 Impl Bds: 1      140         
      0     0        0.0000   428                    Cuts: 45      684         
Detecting symmetries...
      0     2        0.0000   270                      0.0000      684         
Elapsed time = 7.09 sec. (3127.27 ticks, tree = 0.02 MB, solutions = 0)
      1     3        0.0000   384                      0.0000     3867         
      4     4        0.0000   274                      0.0000     6477         
     20     5    infeasible                            0.0000    14431         
                                                 Impl Bds: 48                  
     34     6        0.0000   356                      0.0000    19214         
                                                 Impl Bds: 27                  
     52    14    infeasible                            0.0000    36597         
                                                     Cuts: 18                  
     63    14    infeasible                            0.0000    51747         
                                                  Impl Bds: 3                  
*    75    13      integral     0        0.0000        0.0000    58922    0.00%
                                                  Impl Bds: 8                  
Found incumbent of value 0.000000 after 9.97 sec. (4833.89 ticks)
     79    15        0.0000   306        0.0000        0.0000    56189    0.00%

Clique cuts applied:  3
Implied bound cuts applied:  106
Zero-half cuts applied:  4

Root node processing (before b&c):
  Real time             =    7.06 sec. (3113.97 ticks)
Parallel b&c, 8 threads:
  Real time             =    3.70 sec. (2254.79 ticks)
  Sync time (average)   =    0.89 sec.
  Wait time (average)   =    0.00 sec.
                          ------------
Total (root+branch&cut) =   10.77 sec. (5368.76 ticks)

--- MIP status (101): integer optimal solution.
--- Cplex Time: 10.78sec (det. 5368.77 ticks)

--- Fixing integer variables and solving final LP...

Version identifier: 20.1.0.1 | 2021-04-07 | 3a818710c
CPXPARAM_Advance                                 2
CPXPARAM_Threads                                 8
CPXPARAM_Parallel                                1
CPXPARAM_MIP_Display                             4
CPXPARAM_MIP_Tolerances_AbsMIPGap                0
Parallel mode: deterministic, using up to 8 threads for concurrent optimization:
 * Starting dual Simplex on 1 thread...
 * Starting Barrier on 6 threads...
 * Starting primal Simplex on 1 thread...
Tried aggregator 1 time.
LP Presolve eliminated 4181 rows and 4097 columns.
All rows and columns eliminated.
Presolve time = 0.00 sec. (2.47 ticks)

Dual simplex solved model.


--- Fixed MIP status (1): optimal.
--- Cplex Time: 0.14sec (det. 4.18 ticks)


Proven optimal solution
MIP Solution:            0.000000    (101247 iterations, 83 nodes)
Final Solve:             0.000000    (0 iterations)

Best possible:           0.000000
Absolute gap:            0.000000
Relative gap:            0.000000

--- Reading solution for model m
--- Executing after solve: elapsed 0:00:51.885
--- RookTour.gms(86) 7 Mb
--- Generating MIP model m
--- RookTour.gms(87) 7 Mb
--- LOOPS sol = solution5
---   4,183 rows  4,097 columns  26,917 non-zeroes
---   4,096 discrete-columns
--- Executing CPLEX (Solvelink=2): elapsed 0:00:52.023

IBM ILOG CPLEX   36.1.0 r2c0a44a Released Aug 02, 2021 WEI x86 64bit/MS Window

--- GAMS/Cplex Link licensed for continuous and discrete problems.
--- GMO setup time: 0.00s
--- Space for names approximately 0.17 Mb
--- Use option 'names no' to turn use of names off
--- GMO memory 2.45 Mb (peak 2.48 Mb)
--- Dictionary memory 0.00 Mb
--- Cplex 20.1.0.1 link memory 0.13 Mb (peak 0.69 Mb)
--- Starting Cplex

Version identifier: 20.1.0.1 | 2021-04-07 | 3a818710c
CPXPARAM_Advance                                 0
CPXPARAM_Threads                                 8
CPXPARAM_Parallel                                1
CPXPARAM_MIP_Display                             4
CPXPARAM_MIP_Tolerances_AbsMIPGap                0
Generic callback                                 0x50
Tried aggregator 1 time.
MIP Presolve eliminated 1070 rows and 1009 columns.
MIP Presolve modified 386 coefficients.
Reduced MIP has 3112 rows, 3088 columns, and 17969 nonzeros.
Reduced MIP has 3088 binaries, 0 generals, 0 SOSs, and 0 indicators.
Presolve time = 0.11 sec. (19.30 ticks)
Probing fixed 1665 vars, tightened 0 bounds.
Probing changed sense of 87 constraints.
Probing time = 0.94 sec. (96.23 ticks)
Tried aggregator 1 time.
MIP Presolve eliminated 1597 rows and 1665 columns.
MIP Presolve modified 4 coefficients.
Reduced MIP has 1515 rows, 1423 columns, and 8602 nonzeros.
Reduced MIP has 1423 binaries, 0 generals, 0 SOSs, and 0 indicators.
Presolve time = 0.03 sec. (8.53 ticks)
Probing fixed 6 vars, tightened 0 bounds.
Probing time = 0.17 sec. (27.86 ticks)
Tried aggregator 1 time.
Detecting symmetries...
MIP Presolve eliminated 10 rows and 10 columns.
MIP Presolve modified 2 coefficients.
Reduced MIP has 1505 rows, 1413 columns, and 8558 nonzeros.
Reduced MIP has 1413 binaries, 0 generals, 0 SOSs, and 0 indicators.
Presolve time = 0.05 sec. (8.29 ticks)
Probing time = 0.03 sec. (3.54 ticks)
Clique table members: 8404.
MIP emphasis: balance optimality and feasibility.
MIP search method: dynamic search.
Parallel mode: deterministic, using up to 8 threads.
Parallel mode: deterministic, using up to 2 threads for parallel tasks at root LP.
Parallel mode: deterministic, using up to 6 threads for concurrent optimization:
 * Starting dual Simplex on 1 thread...
 * Starting Barrier on 4 threads...
 * Starting primal Simplex on 1 thread...
Tried aggregator 1 time.
No LP presolve or aggregator reductions.
Presolve time = 0.02 sec. (0.81 ticks)

Iteration log . . .
Iteration:     1   Dual objective     =             0.000000
Iteration:   100   Dual objective     =             0.000000
Perturbation started.
Iteration:   101   Dual objective     =             0.000000
Iteration:   229   Dual objective     =             0.000005
Iteration:   314   Dual objective     =             0.000008
Iteration:   388   Dual objective     =             0.000009
Iteration:   450   Dual objective     =             0.000010
Iteration:   512   Dual objective     =             0.000010
Iteration:   574   Dual objective     =             0.000011
Iteration:   636   Dual objective     =             0.000012
Iteration:   698   Dual objective     =             0.000013
Iteration:   760   Dual objective     =             0.000013
Iteration:   822   Dual objective     =             0.000014
Iteration:   884   Dual objective     =             0.000014
Iteration:   946   Dual objective     =             0.000015
Iteration:  1008   Dual objective     =             0.000015
Iteration:  1070   Dual objective     =             0.000016
Iteration:  1132   Dual objective     =             0.000016
Iteration:  1194   Dual objective     =             0.000017
Iteration:  1256   Dual objective     =             0.000017
Iteration:  1318   Dual objective     =             0.000018
Iteration:  1380   Dual objective     =             0.000018
Iteration:  1442   Dual objective     =             0.000019
Iteration:  1504   Dual objective     =             0.000019
Iteration:  1566   Dual objective     =             0.000019
Iteration:  1628   Dual objective     =             0.000019
Removing perturbation.

Barrier solved model.

Root relaxation solution time = 1.22 sec. (162.75 ticks)

        Nodes                                         Cuts/
   Node  Left     Objective  IInf  Best Integer    Best Bound    ItCnt     Gap

      0     0        0.0000   529                      0.0000        9         
      0     0        0.0000   354                    Cuts: 15      268         
      0     0        0.0000   447                    Cuts: 40      848         
      0     0        0.0000   324                 Impl Bds: 2     1164         
      0     0        0.0000   418                    Cuts: 63     2191         
Detecting symmetries...
      0     2        0.0000   246                      0.0000     2191         
Elapsed time = 12.88 sec. (4781.39 ticks, tree = 0.02 MB, solutions = 0)
      1     3        0.0000   354                      0.0000     5751         
      3     4        0.0000   389                      0.0000     7578         
      7     7        0.0000   439                      0.0000    18208         
                                                 Impl Bds: 32                  
     28    15        0.0000   398                      0.0000    26659         
                                                 Impl Bds: 35                  
     59    14    infeasible                            0.0000    32815         
                                                 Impl Bds: 12                  
     79    12        0.0000   370                      0.0000    52570         
                                                 Impl Bds: 23                  
     99    15    infeasible                            0.0000    72727         
                                                 Impl Bds: 10                  
    126    15    infeasible                            0.0000    97895         
                                                  Impl Bds: 3                  
    150    16        0.0000   398                      0.0000   117812         
                                                  Impl Bds: 2                  
    196     8        0.0000   372                      0.0000   161063         
                                                     Cuts: 21                  
Elapsed time = 19.63 sec. (8819.39 ticks, tree = 0.03 MB, solutions = 0)
    268     7    infeasible                            0.0000   212329         
                                                  Impl Bds: 4                  
    306     7    infeasible                            0.0000   271202         
                                                 Impl Bds: 18                  
    332     5        0.0000   385                      0.0000   327187         
                                                  Impl Bds: 2                  
    356     8        0.0000   339                      0.0000   355021         
                                                  Impl Bds: 2                  
    387    16        0.0000   331                      0.0000   385623         
                                                  Impl Bds: 1                  
    424     4        0.0000   328                      0.0000   442131         
                                                  Impl Bds: 4                  

Implied bound cuts applied:  194
Zero-half cuts applied:  11

Root node processing (before b&c):
  Real time             =   12.83 sec. (4758.95 ticks)
Parallel b&c, 8 threads:
  Real time             =   20.47 sec. (10877.47 ticks)
  Sync time (average)   =    8.96 sec.
  Wait time (average)   =    0.00 sec.
                          ------------
Total (root+branch&cut) =   33.30 sec. (15636.42 ticks)

--- MIP status (103): integer infeasible.
--- Cplex Time: 33.30sec (det. 15636.44 ticks)

CPLEX Error  1217: No solution exists.
--- Problem is integer infeasible
--- Reading solution for model m
--- Executing after solve: elapsed 0:01:25.572
--- RookTour.gms(103) 7 Mb
*** Status: Normal completion
--- Job RookTour.gms Stop 09/28/21 22:38:05 elapsed 0:01:25.578
